0 336.0 105.0
1 339.0 105.0
2 342.0 105.0
3 345.0 105.0
4 351.0 105.0
5 357.0 105.0
6 363.0 105.0
7 369.0 105.0
8 375.0 105.0
9 381.0 105.0
10 387.0 105.0
11 393.0 105.0
12 399.0 105.0
13 405.0 105.0
14 411.0 105.0
15 417.0 105.0
16 423.0 105.0
17 429.0 105.0
18 435.0 105.0
19 441.0 105.0
20 447.0 105.0
21 453.0 105.0
22 459.0 105.0
23 465.0 105.0
24 471.0 105.0
25 477.0 105.0
26 483.0 105.0
27 489.0 105.0
28 495.0 105.0
29 498.0 105.0
30 501.0 105.0
31 504.0 105.0
32 507.0 105.0
33 510.0 105.0
34 513.0 105.0
35 516.0 105.0
36 519.0 105.0
37 522.0 105.0
38 525.0 105.0
39 525.0 102.0
40 525.0 99.0
41 525.0 96.0
42 525.0 93.0
43 525.0 90.0
44 525.0 87.0
45 525.0 84.0
46 525.0 81.0
47 525.0 78.0
48 525.0 75.0
49 525.0 69.0
50 525.0 63.0
51 525.0 57.0
52 525.0 51.0
53 525.0 45.0
54 525.0 42.0
55 525.0 39.0
56 525.0 36.0
57 525.0 33.0
58 525.0 30.0
59 525.0 27.0
60 525.0 24.0
61 525.0 21.0
62 525.0 18.0
63 525.0 15.0
64 522.0 15.0
65 519.0 15.0
66 516.0 15.0
67 513.0 15.0
68 510.0 15.0
69 507.0 15.0
70 504.0 15.0
71 501.0 15.0
72 498.0 15.0
73 495.0 15.0
74 489.0 15.0
75 483.0 15.0
76 477.0 15.0
77 471.0 15.0
78 465.0 15.0
79 459.0 15.0
80 453.0 15.0
81 447.0 15.0
82 441.0 15.0
83 435.0 15.0
84 429.0 15.0
85 423.0 15.0
86 417.0 15.0
87 411.0 15.0
88 405.0 15.0
89 399.0 15.0
90 393.0 15.0
91 387.0 15.0
92 381.0 15.0
93 375.0 15.0
94 369.0 15.0
95 363.0 15.0
96 357.0 15.0
97 351.0 15.0
98 345.0 15.0
99 339.0 15.0
100 333.0 15.0
101 327.0 15.0
102 321.0 15.0
103 315.0 15.0
104 309.0 15.0
105 303.0 15.0
106 297.0 15.0
107 291.0 15.0
108 285.0 15.0
109 279.0 15.0
110 273.0 15.0
111 267.0 15.0
112 261.0 15.0
113 255.0 15.0
114 249.0 15.0
115 243.0 15.0
116 237.0 15.0
117 231.0 15.0
118 225.0 15.0
119 219.0 15.0
120 213.0 15.0
121 207.0 15.0
122 201.0 15.0
123 195.0 15.0
124 189.0 15.0
125 183.0 15.0
126 177.0 15.0
127 171.0 15.0
128 165.0 15.0
129 159.0 15.0
130 153.0 15.0
131 147.0 15.0
132 141.0 15.0
133 135.0 15.0
134 129.0 15.0
135 123.0 15.0
136 117.0 15.0
137 111.0 15.0
138 105.0 15.0
139 102.0 15.0
140 99.0 15.0
141 96.0 15.0
142 93.0 15.0
143 90.0 15.0
144 87.0 15.0
145 84.0 15.0
146 81.0 15.0
147 78.0 15.0
148 75.0 15.0
149 75.0 18.0
150 75.0 21.0
151 75.0 24.0
152 75.0 27.0
153 75.0 30.0
154 75.0 33.0
155 75.0 36.0
156 75.0 39.0
157 75.0 42.0
158 75.0 45.0
159 78.0 45.0
160 81.0 45.0
161 84.0 45.0
162 87.0 45.0
163 90.0 45.0
164 93.0 45.0
165 96.0 45.0
166 99.0 45.0
167 102.0 45.0
168 105.0 45.0
169 111.0 45.0
170 117.0 45.0
171 123.0 45.0
172 129.0 45.0
173 135.0 45.0
174 141.0 45.0
175 147.0 45.0
176 153.0 45.0
177 159.0 45.0
178 165.0 45.0
179 171.0 45.0
180 177.0 45.0
181 183.0 45.0
182 189.0 45.0
183 195.0 45.0
184 201.0 45.0
185 207.0 45.0
186 213.0 45.0
187 219.0 45.0
188 225.0 45.0
189 231.0 45.0
190 237.0 45.0
191 243.0 45.0
192 249.0 45.0
193 255.0 45.0
194 261.0 45.0
195 267.0 45.0
196 273.0 45.0
197 279.0 45.0
198 285.0 45.0
199 291.0 45.0
200 297.0 45.0
201 303.0 45.0
202 309.0 45.0
203 315.0 45.0
204 321.0 45.0
205 327.0 45.0
206 333.0 45.0
207 339.0 45.0
208 345.0 45.0
209 351.0 45.0
210 357.0 45.0
211 363.0 45.0
212 369.0 45.0
213 375.0 45.0
214 381.0 45.0
215 387.0 45.0
216 393.0 45.0
217 399.0 45.0
218 405.0 45.0
219 411.0 45.0
220 417.0 45.0
221 423.0 45.0
222 429.0 45.0
223 435.0 45.0
224 441.0 45.0
225 447.0 45.0
226 453.0 45.0
227 459.0 45.0
228 465.0 45.0
229 471.0 45.0
230 477.0 45.0
231 483.0 45.0
232 489.0 45.0
233 495.0 45.0
234 495.0 75.0
235 495.0 75.0
236 489.0 75.0
237 483.0 75.0
238 477.0 75.0
239 471.0 75.0
240 465.0 75.0
241 459.0 75.0
242 453.0 75.0
243 447.0 75.0
244 441.0 75.0
245 435.0 75.0
246 429.0 75.0
247 423.0 75.0
248 417.0 75.0
249 411.0 75.0
250 405.0 75.0
251 399.0 75.0
252 393.0 75.0
253 387.0 75.0
254 381.0 75.0
255 375.0 75.0
256 369.0 75.0
257 363.0 75.0
258 357.0 75.0
259 351.0 75.0
260 345.0 75.0
261 342.0 75.0
262 339.0 75.0
263 336.0 75.0
264 333.0 75.0
265 330.0 75.0
266 327.0 75.0
267 324.0 75.0
268 321.0 75.0
269 318.0 75.0
270 315.0 75.0
271 315.0 78.0
272 315.0 81.0
273 315.0 84.0
274 315.0 87.0
275 315.0 90.0
276 315.0 93.0
277 315.0 96.0
278 315.0 99.0
279 315.0 102.0
280 315.0 105.0
281 318.0 105.0
282 321.0 105.0
283 324.0 105.0
284 327.0 105.0
285 330.0 105.0
0 333.0 105.0
